Linux optc-02-13 4.15.0-58-generic #64-Ubuntu SMP Tue Aug 6 11:12:41 UTC 2019 x86_64 x86_64 x86_64 GNU/Linux

top - 02:49:43 up 1 day, 16:50,  0 users,  load average: 0,00, 0,17, 0,52
Tasks: 289 gesamt,   1 laufend, 149 schlafend,   0 gestoppt,   0 Zombie
%CPU(s):  7,3 be,  0,3 sy,  0,0 ni, 92,4 un,  0,0 wa,  0,0 hi,  0,0 si,  0,0 st
KiB Spch : 97514992 gesamt, 91994152 frei,   656240 belegt,  4864604 Puff/Cache
KiB Swap:  8388604 gesamt,  8388604 frei,        0 belegt. 96110176 verfü Spch 

  PID USER      PR  NI    VIRT    RES    SHR S  %CPU %MEM     ZEIT+ BEFEHL
19397 bzfhende  20   0   52664   4100   3356 R   6,2  0,0   0:00.01 top
    1 root      20   0  233840   9548   6824 S   0,0  0,0   0:13.36 systemd
    2 root      20   0       0      0      0 S   0,0  0,0   0:00.15 kthreadd
    4 root       0 -20       0      0      0 I   0,0  0,0   0:00.00 kworker/0:+
    6 root      20   0       0      0      0 I   0,0  0,0   0:00.00 kworker/u3+
    7 root       0 -20       0      0      0 I   0,0  0,0   0:00.00 mm_percpu_+
    8 root      20   0       0      0      0 S   0,0  0,0   0:00.02 ksoftirqd/0
    9 root      20   0       0      0      0 I   0,0  0,0   0:10.44 rcu_sched

hard time limit: 04:10:00
hard mem limit: 55100

SLURM jobID: 2182852

@01 /nfs/optimi/kombadon/IP/coral/neos-937446.mps.gz ===========
-----------------------------
Fr 23. Aug 02:49:43 CEST 2019
-----------------------------
@03 1566521383
@05 7200
SCIP version 6.0.0 [precision: 8 byte] [memory: block] [mode: optimized] [LP solver: CPLEX 12.8.0.0] [GitHash: 41ab6e0014]
Copyright (C) 2002-2018 Konrad-Zuse-Zentrum fuer Informationstechnik Berlin (ZIB)

External codes: 
  Readline 7.0         GNU library for command line editing (gnu.org/s/readline)
  CPLEX 12.8.0.0       Linear Programming Solver developed by IBM (www.cplex.com)
  CppAD 20180000.0     Algorithmic Differentiation of C++ algorithms developed by B. Bell (www.coin-or.org/CppAD)
  ZLIB 1.2.11          General purpose compression library by J. Gailly and M. Adler (zlib.net)
  GMP 6.1.2            GNU Multiple Precision Arithmetic Library developed by T. Granlund (gmplib.org)
  bliss 0.73p          Computing Graph Automorphism Groups by T. Junttila and P. Kaski (http://www.tcs.hut.fi/Software/bliss/)

user parameter file <scip.set> not found - using default parameters

SCIP> 
SCIP> set load /home/optimi/bzfhende/opti/scip-opti/check/../settings/enable_treeeprofile.set
loaded parameter file </home/optimi/bzfhende/opti/scip-opti/check/../settings/enable_treeprofile.set>
SCIP> set misc referencevalue 3270
misc/referencevalue = 3270
SCIP> set limits time 7200
limits/time = 7200
SCIP> set limits nodes 2100000000
limits/nodes = 2100000000
SCIP> set limits memory 50000
limits/memory = 50000
SCIP> set lp advanced threads 1
lp/threads = 1
SCIP> set timing clocktype 1
timing/clocktype = 1
SCIP> set display freq 10000
display/freq = 10000
SCIP> set memory savefac 1.0
memory/savefac = 1
SCIP> set save /home/optimi/bzfhende/opti/scip-opti/check/treesize.estimation.jouurnal.3/bzfhende.MMMc.388_neos-937446.scip.M640.enable_treeprofile.set
saved parameter file </home/optimi/bzfhende/opti/scip-opti/check/treesize.estimation.journal.3/bzfhende.MMMc.388_neos-937446.scip.M640.enable_treeprofile.set>
SCIP> read /nfs/optimi/kombadon/IP/coral/neos-937446.mps.gz

read problem </nfs/optimi/kombadon/IP/coral/neos-937446.mps.gz>
============

Warning line 8180: row "R8178" for objective function "N" ignored
original problem has 11341 variables (8571 bin, 0 int, 0 impl, 2770 cont) and 8176 constraints
SCIP> display parameters

number of parameters = 2448
non-default parameter settings:
display/freq = 10000
limits/time = 7200
limits/nodes = 2100000000
limits/memory = 50000
lp/threads = 1
memory/savefac = 1
misc/referencevalue = 3270
presolving/maxrestarts = 0
estimates/profile/enabled = TRUE
estimates/profile/maxdepthfactor = 10
estimates/profile/freq = 0

SCIP> optimize

Activating tree profile data collection
presolving:
(round 1, fast)       2021 del vars, 0 del conss, 0 add conss, 160 chg bounds, 0 chg sides, 0 chg coeffs, 0 upgd conss, 0 impls, 7149 clqs
(round 2, fast)       2021 del vars, 0 del conss, 0 add conss, 160 chg bounds, 160 chg sides, 0 chg coeffs, 0 upgd conss, 0 impls, 7149 clqs
(round 3, fast)       2021 del vars, 0 del conss, 0 add conss, 909 chg bounds, 160 chg sides, 0 chg coeffs, 0 upgd conss, 0 impls, 7149 clqs
(round 4, exhaustive) 2021 del vars, 61 del conss, 0 add conss, 909 chg bounds, 160 chg sides, 0 chg coeffs, 0 upgd conss, 0 impls, 7149 clqs
(round 5, exhaustive) 2021 del vars, 61 del conss, 0 add conss, 909 chg bounds, 160 chg sides, 0 chg coeffs, 7370 upgd conss, 0 impls, 7149 clqs
   (0.9s) probing: 1000/8575 (11.7%) - 0 fixings, 0 aggregations, 18995 implications, 0 bound changes
   (0.9s) probing: 1001/8575 (11.7%) - 0 fixings, 0 aggregations, 19016 implications, 0 bound changes
   (0.9s) probing aborted: 1000/1000 successive useless probings
presolving (6 rounds: 6 fast, 3 medium, 3 exhaustive):
 2021 deleted vars, 61 deleted constraints, 0 added constraints, 909 tightened bounds, 0 added holes, 160 changed sides, 0 changed coefficients
 0 implications, 26165 cliques
presolved problem has 9320 variables (8571 bin, 0 int, 749 impl, 0 cont) and 8115 constraints
    217 constraints of type <knapsack>
   7149 constraints of type <setppc>
    745 constraints of type <linear>
      4 constraints of type <logicor>
transformed objective value is always integral (scale: 1)
Presolving Time: 0.88

 time | node  | left  |LP iter|LP it/n| mem |mdpt |frac |vars |cons |cols |rows |cuts |confs|strbr|  dualbound   | primalbound  |  gap   
t 0.9s|     1 |     0 |     0 |     - |  64M|   0 |   - |9320 |8115 |   0 |   0 |   0 |   0 |   0 |-5.395500e+05 | 5.160000e+04 |    Inf 
Q 1.0s|     1 |     0 |     0 |     - |  75M|   0 |   - |9320 |8115 |9320 |8115 |   0 |   0 |   0 |-5.395500e+05 | 8.874000e+03 |    Inf 
  6.1s|     1 |     0 | 17185 |     - |  81M|   0 |1580 |9320 |8130 |9320 |8115 |   0 |  15 |   0 | 3.270000e+03 | 8.874000e+03 | 171.38%
 10.8s|     1 |     0 | 26882 |     - |  85M|   0 |1111 |9320 |8131 |9320 |8131 |  16 |  16 |   0 | 3.270000e+03 | 8.874000e+03 | 171.38%
 14.5s|     1 |     0 | 34962 |     - |  86M|   0 | 929 |9320 |8132 |9320 |8150 |  35 |  17 |   0 | 3.270000e+03 | 8.874000e+03 | 171.38%
 17.4s|     1 |     0 | 40867 |     - |  87M|   0 | 324 |9320 |8132 |9320 |8166 |  51 |  17 |   0 | 3.270000e+03 | 8.874000e+03 | 171.38%
 19.7s|     1 |     0 | 45742 |     - |  88M|   0 | 548 |9320 |8133 |9320 |8177 |  62 |  18 |   0 | 3.270000e+03 | 8.874000e+03 | 171.38%
 22.0s|     1 |     0 | 50770 |     - |  88M|   0 | 245 |9320 |8134 |9320 |8185 |  70 |  19 |   0 | 3.270000e+03 | 8.874000e+03 | 171.38%
 23.0s|     1 |     0 | 52537 |     - |  90M|   0 | 245 |9320 |8134 |9320 |8190 |  75 |  19 |   0 | 3.270000e+03 | 8.874000e+03 | 171.38%
 24.6s|     1 |     0 | 55632 |     - |  91M|   0 |  88 |9320 |8135 |9320 |8194 |  79 |  20 |   0 | 3.270000e+03 | 8.874000e+03 | 171.38%
R24.6s|     1 |     0 | 55632 |     - |  91M|   0 |  88 |9320 |8135 |9320 |8194 |  79 |  20 |   0 | 3.270000e+03 | 6.560000e+03 | 100.61%
s24.6s|     1 |     0 | 55632 |     - |  91M|   0 |  88 |9320 |8135 |9320 |8194 |  79 |  20 |   0 | 3.270000e+03 | 6.470000e+03 |  97.86%
 25.0s|     1 |     0 | 56284 |     - |  92M|   0 |  84 |9320 |8135 |9320 |8196 |  81 |  20 |   0 | 3.270000e+03 | 6.470000e+03 |  97.86%
b25.2s|     1 |     0 | 56852 |     - |  92M|   0 |   - |9320 |8135 |9320 |8196 |  81 |  20 |   0 | 3.270000e+03 | 3.660000e+03 |  11.93%
 26.1s|     1 |     0 | 58252 |     - |  93M|   0 | 126 |9320 |8135 |9320 |8198 |  83 |  20 |   0 | 3.270000e+03 | 3.660000e+03 |  11.93%
 time | node  | left  |LP iter|LP it/n| mem |mdpt |frac |vars |cons |cols |rows |cuts |confs|strbr|  dualbound   | primalbound  |  gap   
 26.7s|     1 |     0 | 59255 |     - |  94M|   0 | 125 |9320 |8135 |9320 |8200 |  85 |  20 |   0 | 3.270000e+03 | 3.660000e+03 |  11.93%
 27.2s|     1 |     0 | 60081 |     - |  95M|   0 | 149 |9320 |8135 |9320 |8202 |  87 |  20 |   0 | 3.270000e+03 | 3.660000e+03 |  11.93%
u28.1s|     1 |     0 | 61799 |     - |  97M|   0 |   - |9320 |8135 |9320 |8202 |   0 |  20 |   0 | 3.270000e+03 | 3.270000e+03 |   0.00%
SCIP nodes: 1 Estimation: -1
 28.1s|     1 |     0 | 61799 |     - |  97M|   0 |   - |9320 |8135 |9320 |8202 |  87 |  20 |   0 | 3.270000e+03 | 3.270000e+03 |   0.00%
Report 1
Time Elapsed: 28.09
  Tree Data        : 1 nodes (1 visited, 0 inner, 1 leaves, 0 open), progress: 1.0000
Tree Estimation    :       estim       value       trend  resolution      smooth
  wbe              :          -1           -           -           -           -
  tree profile     :          -1           -           -           -           -
  gap              :           1     1.00000     1.00000           1           1
  progress         :           1     1.00000     1.00000           1           1
  leaf-frequency   :           1     0.50000     1.00000           1           1
  ssg              :           1     0.00000    -1.00000           1           1
  open-nodes       :           1     0.00000     0.00000           1           1
End of Report 1


SCIP Status        : problem is solved [optimal solution found]
Solving Time (sec) : 28.09
Solving Nodes      : 1
Primal Bound       : +3.26999999999999e+03 (11 solutions)
Dual Bound         : +3.26999999999999e+03
Gap                : 0.00 %

SCIP> display statistics

SCIP Status        : problem is solved [optimal solution found]
Total Time         :      28.12
  solving          :      28.09
  presolving       :       0.88 (included in solving)
  reading          :       0.03
  copying          :       0.00 (0 times copied the problem)
Original Problem   :
  Problem name     : file
  Variables        : 11341 (8571 binary, 0 integer, 0 implicit integer, 2770 continuous)
  Constraints      : 8176 initial, 8176 maximal
  Objective        : minimize, 11341 non-zeros (abs.min = 1, abs.max = 100)
Presolved Problem  :
  Problem name     : t_file
  Variables        : 9320 (8571 binary, 0 integer, 749 implicit integer, 0 continuous)
  Constraints      : 8115 initial, 8135 maximal
  Objective        : minimize, 9320 non-zeros (abs.min = 1, abs.max = 99)
Presolvers         :   ExecTime  SetupTime  Calls  FixedVars   AggrVars   ChgTypes  ChgBounds   AddHoles    DelCons    AddCons   ChgSides   ChgCoefs
  boundshift       :       0.00       0.00      0          0          0          0          0          0          0          0          0          0
  convertinttobin  :       0.00       0.00      0          0          0          0          0          0          0          0          0          0
  domcol           :       0.01       0.00      1          0          0          0          0          0          0          0          0          0
  dualagg          :       0.00       0.00      0          0          0          0          0          0          0          0          0          0
  dualcomp         :       0.00       0.00      0          0          0          0          0          0          0          0          0          0
  dualinfer        :       0.00       0.00      0          0          0          0          0          0          0          0          0          0
  gateextraction   :       0.00       0.00      1          0          0          0          0          0          0          0          0          0
  implics          :       0.00       0.00      3          0          0          0          0          0          0          0          0          0
  inttobinary      :       0.00       0.00      0          0          0          0          0          0          0          0          0          0
  qpkktref         :       0.00       0.00      0          0          0          0          0          0          0          0          0          0
  redvub           :       0.00       0.00      0          0          0          0          0          0          0          0          0          0
  sparsify         :       0.01       0.00      1          0          0          0          0          0          0          0          0          0
  stuffing         :       0.00       0.00      0          0          0          0          0          0          0          0          0          0
  symbreak         :       0.00       0.00      0          0          0          0          0          0          0          0          0          0
  symmetry         :       0.00       0.00      0          0          0          0          0          0          0          0          0          0
  trivial          :       0.00       0.00      6          0          0          0          0          0          0          0          0          0
  tworowbnd        :       0.00       0.00      0          0          0          0          0          0          0          0          0          0
  dualfix          :       0.00       0.00      6       1861          0          0          0          0          0          0          0          0
  genvbounds       :       0.00       0.00      0          0          0          0          0          0          0          0          0          0
  orbitalfixing    :       0.00       0.00      0          0          0          0          0          0          0          0          0          0
  probing          :       0.77       0.00      1          0          0          0          0          0          0          0          0          0
  pseudoobj        :       0.00       0.00      0          0          0          0          0          0          0          0          0          0
  vbounds          :       0.01       0.00      1          0          0          0          0          0          0          0          0          0
  knapsack         :       0.00       0.00      3          0          0          0          0          0          0          0          0          0
  setppc           :       0.02       0.00      3          0          0          0          0          0          0          0          0          0
  linear           :       0.04       0.00      9          0        160          0        909          0         61          0        160          0
  logicor          :       0.00       0.00      3          0          0          0          0          0          0          0          0          0
  benders          :       0.00       0.00      0          0          0          0          0          0          0          0          0          0
  components       :       0.00       0.00      1          0          0          0          0          0          0          0          0          0
  root node        :          -          -      -          0          -          -          0          -          -          -          -          -
Constraints        :     Number  MaxNumber  #Separate #Propagate    #EnfoLP    #EnfoRelax  #EnfoPS    #Check   #ResProp    Cutoffs    DomReds       Cuts    Applied      Conss   Children
  benderslp        :          0          0          0          0          0          0          0         24          0          0          0          0          0          0          0
  integral         :          0          0          0          0          0          0          0         24          0          0          0          0          0          0          0
  knapsack         :        217        217         12      22916          0          0          0         18          0         19          0          0          0          0          0
  setppc           :       7149+      7162         12      22868          0          0          0         12         39          2          0          1          1          0          0
  linear           :        745        745         12      22893          0          0          0         12          0          0          0          0          0          0          0
  logicor          :          4+        11         12         11          0          0          0         11          0          0          0          0          0          0          0
  benders          :          0          0          0          0          0          0          0         12          0          0          0          0          0          0          0
  countsols        :          0          0          0          0          0          0          0         12          0          0          0          0          0          0          0
  components       :          0          0          0          0          0          0          0          0          0          0          0          0          0          0          0
Constraint Timings :  TotalTime  SetupTime   Separate  Propagate     EnfoLP     EnfoPS     EnfoRelax   Check    ResProp    SB-Prop
  benderslp        :       0.00       0.00       0.00       0.00       0.00       0.00       0.00       0.00       0.00       0.00
  integral         :       0.01       0.00       0.00       0.00       0.00       0.00       0.00       0.01       0.00       0.00
  knapsack         :       0.04       0.00       0.00       0.04       0.00       0.00       0.00       0.00       0.00       0.00
  setppc           :       0.19       0.00       0.01       0.17       0.00       0.00       0.00       0.01       0.00       0.00
  linear           :       0.01       0.00       0.00       0.01       0.00       0.00       0.00       0.00       0.00       0.00
  logicor          :       0.00       0.00       0.00       0.00       0.00       0.00       0.00       0.00       0.00       0.00
  benders          :       0.00       0.00       0.00       0.00       0.00       0.00       0.00       0.00       0.00       0.00
  countsols        :       0.00       0.00       0.00       0.00       0.00       0.00       0.00       0.00       0.00       0.00
  components       :       0.00       0.00       0.00       0.00       0.00       0.00       0.00       0.00       0.00       0.00
Propagators        : #Propagate   #ResProp    Cutoffs    DomReds
  dualfix          :          2          0          0          0
  genvbounds       :          0          0          0          0
  nlobbt           :          0          0          0          0
  obbt             :          0          0          0          0
  orbitalfixing    :          0          0          0          0
  probing          :          0          0          0          0
  pseudoobj        :         15          0          0          0
  redcost          :         13          0          0          0
  rootredcost      :          0          0          0          0
  vbounds          :      19947          0          0          0
Propagator Timings :  TotalTime  SetupTime   Presolve  Propagate    ResProp    SB-Prop
  dualfix          :       0.00       0.00       0.00       0.00       0.00       0.00
  genvbounds       :       0.01       0.00       0.00       0.01       0.00       0.00
  nlobbt           :       0.00       0.00       0.00       0.00       0.00       0.00
  obbt             :       0.00       0.00       0.00       0.00       0.00       0.00
  orbitalfixing    :       0.01       0.00       0.00       0.01       0.00       0.00
  probing          :       0.77       0.00       0.77       0.00       0.00       0.00
  pseudoobj        :       0.02       0.00       0.00       0.02       0.00       0.00
  redcost          :       0.02       0.00       0.00       0.02       0.00       0.00
  rootredcost      :       0.01       0.00       0.00       0.01       0.00       0.00
  vbounds          :       0.02       0.00       0.01       0.01       0.00       0.00
Conflict Analysis  :       Time      Calls    Success    DomReds  Conflicts   Literals    Reconvs ReconvLits   Dualrays   Nonzeros   LP Iters   (pool size: [10000,10000])
  propagation      :       0.00         16         16          -         20        3.0          0        0.0          -          -          -
  infeasible LP    :       0.00          0          0          -          0        0.0          0        0.0          0        0.0          0
  bound exceed. LP :       0.25          3          0          -          0        0.0          0        0.0          0        0.0         60
  strong branching :       0.00          0          0          -          0        0.0          0        0.0          -          -          0
  pseudo solution  :       0.00          0          0          -          0        0.0          0        0.0          -          -          -
  applied globally :       0.00          -          -          0         20        3.0          -          -          0          -          -
  applied locally  :          -          -          -          0          0        0.0          -          -          0          -          -
Separators         :   ExecTime  SetupTime      Calls    Cutoffs    DomReds       Cuts    Applied      Conss
  cut pool         :       0.00                    23          -          -         93          -          -    (maximal pool size: 160)
  aggregation      :       0.04       0.00         12          0          0          0          0          0
  cgmip            :       0.00       0.00          0          0          0          0          0          0
  clique           :       1.33       0.00         12          0          0          0          8          0
  closecuts        :       0.00       0.00          0          0          0          0          0          0
  cmir             :       0.00       0.00          0          0          0          0          0          0
  convexproj       :       0.00       0.00          0          0          0          0          0          0
  disjunctive      :       0.00       0.00          0          0          0          0          0          0
  eccuts           :       0.00       0.00          0          0          0          0          0          0
  flowcover        :       0.00       0.00          0          0          0          0          0          0
  gauge            :       0.00       0.00          0          0          0          0          0          0
  gomory           :       0.53       0.00         10          0          0          0          6          0
  impliedbounds    :       0.01       0.00         12          0          0          0          0          0
  intobj           :       0.00       0.00          0          0          0          0          0          0
  mcf              :       0.00       0.00          1          0          0          0          0          0
  oddcycle         :       0.00       0.00          0          0          0          0          0          0
  rapidlearning    :       0.00       0.00          0          0          0          0          0          0
  strongcg         :       0.46       0.00         12          0          0          0          0          0
  zerohalf         :       0.10       0.00         12          0          0          0         72          0
Pricers            :   ExecTime  SetupTime      Calls       Vars
  problem variables:       0.00          -          0          0
Branching Rules    :   ExecTime  SetupTime   BranchLP  BranchExt   BranchPS    Cutoffs    DomReds       Cuts      Conss   Children
  allfullstrong    :       0.00       0.00          0          0          0          0          0          0          0          0
  cloud            :       0.00       0.00          0          0          0          0          0          0          0          0
  distribution     :       0.00       0.00          0          0          0          0          0          0          0          0
  fullstrong       :       0.00       0.00          0          0          0          0          0          0          0          0
  inference        :       0.00       0.00          0          0          0          0          0          0          0          0
  leastinf         :       0.00       0.00          0          0          0          0          0          0          0          0
  lookahead        :       0.00       0.00          0          0          0          0          0          0          0          0
  mostinf          :       0.00       0.00          0          0          0          0          0          0          0          0
  multaggr         :       0.00       0.00          0          0          0          0          0          0          0          0
  nodereopt        :       0.00       0.00          0          0          0          0          0          0          0          0
  pscost           :       0.00       0.00          0          0          0          0          0          0          0          0
  random           :       0.00       0.00          0          0          0          0          0          0          0          0
  relpscost        :       0.00       0.00          0          0          0          0          0          0          0          0
Primal Heuristics  :   ExecTime  SetupTime      Calls      Found       Best
  LP solutions     :       0.00          -          -          0          0
  relax solutions  :       0.00          -          -          0          0
  pseudo solutions :       0.00          -          -          0          0
  strong branching :       0.00          -          -          0          0
  actconsdiving    :       0.00       0.00          0          0          0
  alns             :       0.00       0.00          0          0          0
  bound            :       0.00       0.00          0          0          0
  clique           :       0.04       0.00          1          1          1
  coefdiving       :       0.00       0.00          0          0          0
  completesol      :       0.00       0.00          0          0          0
  conflictdiving   :       0.00       0.00          0          0          0
  crossover        :       0.00       0.00          0          0          0
  dins             :       0.00       0.00          0          0          0
  distributiondivin:       0.00       0.00          0          0          0
  dualval          :       0.00       0.00          0          0          0
  farkasdiving     :       0.78       0.00          1          1          1
  feaspump         :       0.00       0.00          0          0          0
  fixandinfer      :       0.00       0.00          0          0          0
  fracdiving       :       0.00       0.00          0          0          0
  gins             :       0.00       0.00          0          0          0
  guideddiving     :       0.00       0.00          0          0          0
  indicator        :       0.00       0.00          0          0          0
  intdiving        :       0.00       0.00          0          0          0
  intshifting      :       0.00       0.00          0          0          0
  linesearchdiving :       0.00       0.00          0          0          0
  localbranching   :       0.00       0.00          0          0          0
  locks            :       0.13       0.00          1          0          0
  lpface           :       0.00       0.00          0          0          0
  mpec             :       0.00       0.00          0          0          0
  multistart       :       0.00       0.00          0          0          0
  mutation         :       0.00       0.00          0          0          0
  nlpdiving        :       0.00       0.00          0          0          0
  objpscostdiving  :       0.00       0.00          0          0          0
  octane           :       0.00       0.00          0          0          0
  ofins            :       0.00       0.00          0          0          0
  oneopt           :       0.21       0.00          2          1          1
  proximity        :       0.00       0.00          0          0          0
  pscostdiving     :       0.00       0.00          0          0          0
  randrounding     :       0.18       0.00         12          1          0
  rens             :       0.00       0.00          0          0          0
  reoptsols        :       0.00       0.00          0          0          0
  repair           :       0.00       0.00          0          0          0
  rins             :       0.00       0.00          0          0          0
  rootsoldiving    :       0.00       0.00          0          0          0
  rounding         :       0.08       0.00         12          1          1
  shiftandpropagate:       0.00       0.00          0          0          0
  shifting         :       0.05       0.00         12          2          1
  simplerounding   :       0.00       0.00         12          0          0
  subnlp           :       0.00       0.00          0          0          0
  trivial          :       0.02       0.00          2          2          1
  trivialnegation  :       0.00       0.00          0          0          0
  trysol           :       0.00       0.00          0          0          0
  twoopt           :       0.00       0.00          0          0          0
  undercover       :       0.00       0.00          0          0          0
  vbounds          :       0.36       0.00          1          1          0
  veclendiving     :       0.00       0.00          0          0          0
  zeroobj          :       0.00       0.00          0          0          0
  zirounding       :       0.00       0.00          1          1          0
  other solutions  :          -          -          -          0          -
Diving Statistics  :      Calls      Nodes   LP Iters Backtracks  Conflicts   MinDepth   MaxDepth   AvgDepth  RoundSols  NLeafSols  MinSolDpt  MaxSolDpt  AvgSolDpt
  actconsdiving    :          0          -          -          -          -          -          -          -          -          -          -          -          -
  coefdiving       :          0          -          -          -          -          -          -          -          -          -          -          -          -
  conflictdiving   :          0          -          -          -          -          -          -          -          -          -          -          -          -
  distributiondivin:          0          -          -          -          -          -          -          -          -          -          -          -          -
  farkasdiving     :          1          1       1718          0          0          2          2        2.0          0          1          2          2        2.0
  fracdiving       :          0          -          -          -          -          -          -          -          -          -          -          -          -
  guideddiving     :          0          -          -          -          -          -          -          -          -          -          -          -          -
  linesearchdiving :          0          -          -          -          -          -          -          -          -          -          -          -          -
  pscostdiving     :          0          -          -          -          -          -          -          -          -          -          -          -          -
  veclendiving     :          0          -          -          -          -          -          -          -          -          -          -          -          -
Neighborhoods      :      Calls  SetupTime  SolveTime SolveNodes       Sols       Best       Exp3  EpsGreedy        UCB TgtFixRate  Opt  Inf Node Stal  Sol  Usr Othr Actv
  rens             :          0       0.00       0.00          0          0          0    0.00000   -1.00000    1.00000      0.900    0    0    0    0    0    0    0    1
  rins             :          0       0.00       0.00          0          0          0    0.00000   -1.00000    1.00000      0.900    0    0    0    0    0    0    0    1
  mutation         :          0       0.00       0.00          0          0          0    0.00000   -1.00000    1.00000      0.900    0    0    0    0    0    0    0    1
  localbranching   :          0       0.00       0.00          0          0          0    0.00000   -1.00000    1.00000      0.900    0    0    0    0    0    0    0    1
  crossover        :          0       0.00       0.00          0          0          0    0.00000   -1.00000    1.00000      0.900    0    0    0    0    0    0    0    1
  proximity        :          0       0.00       0.00          0          0          0    0.00000   -1.00000    1.00000      0.900    0    0    0    0    0    0    0    1
  zeroobjective    :          0       0.00       0.00          0          0          0    0.00000   -1.00000    1.00000      0.900    0    0    0    0    0    0    0    1
  dins             :          0       0.00       0.00          0          0          0    0.00000   -1.00000    1.00000      0.900    0    0    0    0    0    0    0    1
LP                 :       Time      Calls Iterations  Iter/call   Iter/sec  Time-0-It Calls-0-It    ItLimit
  primal LP        :       0.00          0          0       0.00          -       0.00          0
  dual LP          :      22.76         12      59008    4917.33    2592.62       0.00          0
  lex dual LP      :       0.00          0          0       0.00          -
  barrier LP       :       0.00          0          0       0.00          -       0.00          0
  resolve instable :       0.00          0          0       0.00          -
  diving/probing LP:       1.09          4       2791     697.75    2560.55
  strong branching :       0.00          0          0       0.00          -          -          -          0
    (at root node) :          -          0          0       0.00          -
  conflict analysis:       0.00          6         60      10.00          -
B&B Tree           :
  number of runs   :          1
  nodes            :          1 (0 internal, 1 leaves)
  feasible leaves  :          0
  infeas. leaves   :          0
  objective leaves :          1
  nodes (total)    :          1 (0 internal, 1 leaves)
  nodes left       :          0
  max depth        :          0
  max depth (total):          0
  backtracks       :          0 (0.0%)
  early backtracks :          0 (0.0%)
  nodes exc. ref.  :          0 (0.0%)
  delayed cutoffs  :          0
  repropagations   :          0 (0 domain reductions, 0 cutoffs)
  avg switch length:       2.00
  switching time   :       0.00
Root Node          :
  First LP value   : +3.27000000000001e+03
  First LP Iters   :      16680 (3610.39 Iter/sec)
  First LP Time    :       4.62
  Final Dual Bound : +3.26999999999999e+03
  Final Root Iters :      59576
  Root LP Estimate :                     -
Solution           :
  Solutions found  :         11 (6 improvements)
  First Solution   : +5.16000000000000e+04   (in run 1, after 1 nodes, 0.93 seconds, depth 0, found by <trivial>)
  Gap First Sol.   :   infinite
  Gap Last Sol.    :       0.00 %
  Primal Bound     : +3.26999999999999e+03   (in run 1, after 1 nodes, 28.09 seconds, depth 2, found by <farkasdiving>)
  Dual Bound       : +3.26999999999999e+03
  Gap              :       0.00 %
  Avg. Gap         :      65.48 % (1839.40 primal-dual integral)
  Tree Data        : 1 nodes (1 visited, 0 inner, 1 leaves, 0 open), progress: 1.0000
Tree Estimation    :       estim       value       trend  resolution      smooth
  wbe              :           1           -           -           -           -
  tree profile     :          -1           -           -           -           -
  gap              :           1     1.00000     1.00000           1           1
  progress         :           1     1.00000     1.00000           1           1
  leaf-frequency   :           1     0.50000     1.00000           1           1
  ssg              :           1     0.00000    -1.00000           1           1
  open-nodes       :           1     0.00000     0.00000           1           1


SCIP> checksol

check best solution
solution is feasible in original problem
Violation          :    absolute    relative
  bounds           : 1.09690e-13 1.09690e-13
  integrality      : 1.09690e-13           -
  LP rows          : 4.52971e-14 4.52971e-14
  constraints      : 4.52971e-14 4.52971e-14

SCIP> write sol /local/tmp/bzfhende-tmpdir/bzfhende.MMMc.388_neos-937446.scip.M6440.enable_treeprofile.sol

written solution information to file </local/tmp/bzfhende-tmpdir/bzfhende.MMMc.388_neos-937446.scip.M640.enable_treeprofile.sol>

SCIP> quit

Disabling tree profile data collection
Read MPS: 1
MIP has 11341 vars and 8176 constraints
Read SOL: 1
Objective value computed by solver: 3269.99999999999

Integrality tolerance: 1/10000
Linear tolerance: 1/10000
Objective tolerance: 1/10000

Check SOL: Integrality 1 Constraints 1 Objective 1
Maximum violations: Integrality 1.1e-13 Constraints 1.1e-13 Objective 9.034999999999999e-12
@04 1566521412
-----------------------------
Fr 23. Aug 02:50:12 CEST 2019
-----------------------------

=ready=
